Data path: /scratch/opt/lxu/CFLG/benchmarks/tree_A
Instance: treeA.350.35
Result path: /scratch/opt/lxu/CFLG/results/tree_A
Solver: Gurobi
Time limit: 7200
Formulation: LEFPA
Cover: Large
julia --project=. src/main.jl /scratch/opt/lxu/CFLG/benchmarks/tree_A treeA.350.35 /scratch/opt/lxu/CFLG/results/tree_A Gurobi 7200 LEFPA Large
The latest version of Julia in the `release` channel is 1.11.6+0.x64.linux.gnu. You currently have `1.11.4+0.x64.linux.gnu` installed. Run:

  juliaup update

in your terminal shell to install Julia 1.11.6+0.x64.linux.gnu and update the `release` channel to that version.
/scratch/opt/lxu/CFLG/benchmarks/tree_A Gurobi 7200.0 /scratch/opt/lxu/CFLG/results/tree_A treeA.350.35 LEFPA Large
/scratch/opt/lxu/CFLG/benchmarks/tree_A/treeA.350.35

 read graph
data loaded

problem_graph/original graph: node: 350/350 edge: 384/384 dlt: 2.9854512643536775 break_avg_len: 1.4927256321768387 break_max_len: 1.997413463838551Vbar/V, Ebar/E(184, 350, 218, 384)
Set parameter TokenServer to value "solice01.zib.de"
Set parameter Threads to value 1
Set parameter OutputFlag to value 1
Gurobi Optimizer version 12.0.1 build v12.0.1rc0 (linux64 - "Debian GNU/Linux 12 (bookworm)")

CPU model: Intel(R) Xeon(R) Gold 5122 CPU @ 3.60GHz, instruction set [SSE2|AVX|AVX2|AVX512]
Thread count: 8 physical cores, 16 logical processors, using up to 1 threads

Non-default parameters:
Threads  1

Optimize a model with 546 rows, 870 columns and 1450 nonzeros
Model fingerprint: 0x7f53a5c7
Coefficient statistics:
  Matrix range     [1e+00, 1e+00]
  Objective range  [1e+00, 1e+00]
  Bounds range     [1e+00, 1e+00]
  RHS range        [1e+00, 1e+00]
Presolve removed 304 rows and 384 columns
Presolve time: 0.00s
Presolved: 242 rows, 486 columns, 762 nonzeros

Iteration    Objective       Primal Inf.    Dual Inf.      Time
       0    2.9000000e+02   1.340000e+02   0.000000e+00      0s
     104    1.8400000e+02   0.000000e+00   0.000000e+00      0s

Solved in 104 iterations and 0.00 seconds (0.00 work units)
Optimal objective  1.840000000e+02

User-callback calls 183, time in user-callback 0.01 sec
elapsed CPU time: 1.430634 seconds
Set parameter TokenServer to value "solice01.zib.de"
Set parameter Threads to value 1
Set parameter OutputFlag to value 1
Set parameter MIPGap to value 0.0001
Set parameter TimeLimit to value 7198.569366

 more cuts: false 2.9854512643536775 false
is_attach:trueformulation:LEFPA0 290 256

 model loaded

Gurobi Optimizer version 12.0.1 build v12.0.1rc0 (linux64 - "Debian GNU/Linux 12 (bookworm)")

CPU model: Intel(R) Xeon(R) Gold 5122 CPU @ 3.60GHz, instruction set [SSE2|AVX|AVX2|AVX512]
Thread count: 8 physical cores, 16 logical processors, using up to 1 threads

Non-default parameters:
TimeLimit  7198.569366
Threads  1

Optimize a model with 8992 rows, 4623 columns and 24538 nonzeros
Model fingerprint: 0xf965319e
Variable types: 836 continuous, 3787 integer (3787 binary)
Coefficient statistics:
  Matrix range     [1e-06, 6e+00]
  Objective range  [1e+00, 1e+00]
  Bounds range     [4e-02, 3e+00]
  RHS range        [4e-02, 7e+00]
Presolve removed 4129 rows and 1655 columns
Presolve time: 0.20s
Presolved: 4863 rows, 2968 columns, 20245 nonzeros
Variable types: 433 continuous, 2535 integer (2535 binary)
Found heuristic solution: objective 141.0000000
Found heuristic solution: objective 140.0000000

Root relaxation: objective 6.781046e+01, 2293 iterations, 0.04 seconds (0.04 work units)

    Nodes    |    Current Node    |     Objective Bounds      |     Work
 Expl Unexpl |  Obj  Depth IntInf | Incumbent    BestBd   Gap | It/Node Time

     0     0   67.81046    0  286  140.00000   67.81046  51.6%     -    0s
     0     0   67.81046    0  287  140.00000   67.81046  51.6%     -    0s
H    0     0                     122.0000000   67.81046  44.4%     -    0s
H    0     0                      89.0000000   67.81046  23.8%     -    0s
H    0     0                      85.0000000   67.81046  20.2%     -    0s
H    0     0                      84.0000000   67.81046  19.3%     -    0s
     0     0   72.19432    0  328   84.00000   72.19432  14.1%     -    0s
H    0     0                      83.0000000   72.19432  13.0%     -    0s
     0     0   72.19432    0  328   83.00000   72.19432  13.0%     -    0s
     0     0   74.02676    0  276   83.00000   74.02676  10.8%     -    0s
H    0     0                      82.0000000   74.02676  9.72%     -    0s
     0     0   74.04596    0  214   82.00000   74.04596  9.70%     -    0s
     0     0   74.04596    0  205   82.00000   74.04596  9.70%     -    0s
     0     0   74.33333    0  205   82.00000   74.33333  9.35%     -    0s
     0     0   74.33333    0  204   82.00000   74.33333  9.35%     -    0s
     0     0   74.33333    0  206   82.00000   74.33333  9.35%     -    0s
H    0     0                      80.0000000   74.33333  7.08%     -    0s
     0     0   74.50000    0  203   80.00000   74.50000  6.88%     -    0s
     0     0   74.50000    0  183   80.00000   74.50000  6.88%     -    0s
     0     0   74.50000    0   38   80.00000   74.50000  6.88%     -    0s
H    0     0                      79.0000000   74.50000  5.70%     -    0s
H    0     0                      78.0000000   74.50000  4.49%     -    0s
     0     0   74.50000    0   38   78.00000   74.50000  4.49%     -    0s
     0     0   74.50000    0   69   78.00000   74.50000  4.49%     -    0s
H    0     0                      77.0000000   74.50000  3.25%     -    0s
     0     0   74.50000    0   93   77.00000   74.50000  3.25%     -    0s
     0     0   74.50000    0   19   77.00000   74.50000  3.25%     -    0s
     0     0   74.50000    0   79   77.00000   74.50000  3.25%     -    1s
     0     0   74.50000    0   48   77.00000   74.50000  3.25%     -    1s
H    0     0                      76.0000000   74.50000  1.97%     -    1s
     0     0   74.50000    0   75   76.00000   74.50000  1.97%     -    1s
     0     0   74.50000    0   81   76.00000   74.50000  1.97%     -    1s
     0     0   74.50000    0   76   76.00000   74.50000  1.97%     -    1s
     0     0   74.50000    0   85   76.00000   74.50000  1.97%     -    1s

Cutting planes:
  Gomory: 8
  Cover: 46
  Implied bound: 31
  Clique: 34
  MIR: 58
  Flow cover: 1
  GUB cover: 9
  Zero half: 15
  RLT: 12
  Relax-and-lift: 43
  BQP: 6

Explored 1 nodes (14688 simplex iterations) in 1.19 seconds (0.77 work units)
Thread count was 1 (of 16 available processors)

Solution count 10: 76 77 78 ... 89

Optimal solution found (tolerance 1.00e-04)
Best objective 7.600000000000e+01, best bound 7.600000000000e+01, gap 0.0000%

User-callback calls 1354, time in user-callback 0.00 sec

 sepatime0 0 0
76.0
Stat(MathOptInterface.OPTIMAL, 76.0, 76.0, 0.0, 0.0, 1.430634, 1.189608097076416, 1, Main.CFLG.LEFPA, "", #undef)
